(set-info :smt-lib-version 2.6)
(set-logic QF_BV)
(set-info :source |
 Patrice Godefroid, SAGE (systematic dynamic test generation)
 For more information: http://research.microsoft.com/en-us/um/people/pg/public_psfiles/ndss2008.pdf
|)
(set-info :category "industrial")
(set-info :status sat)
(declare-fun T4_11052 () (_ BitVec 32))
(declare-fun T4_7862 () (_ BitVec 32))
(declare-fun T1_11052 () (_ BitVec 8))
(declare-fun T1_11053 () (_ BitVec 8))
(declare-fun T1_11054 () (_ BitVec 8))
(declare-fun T1_11055 () (_ BitVec 8))
(declare-fun T1_7862 () (_ BitVec 8))
(declare-fun T1_7863 () (_ BitVec 8))
(declare-fun T1_7864 () (_ BitVec 8))
(declare-fun T1_7865 () (_ BitVec 8))
(assert (let ((?v_0 (bvsub (_ bv0 32) ((_ zero_extend 24) (ite (bvult T4_11052 (_ bv0 32)) (_ bv1 8) (_ bv0 8)))))) (and true (= T4_7862 (bvor (bvshl (bvor (bvshl (bvor (bvshl ((_ zero_extend 24) T1_7865) (_ bv8 32)) ((_ zero_extend 24) T1_7864)) (_ bv8 32)) ((_ zero_extend 24) T1_7863)) (_ bv8 32)) ((_ zero_extend 24) T1_7862))) (= T4_11052 (bvor (bvshl (bvor (bvshl (bvor (bvshl ((_ zero_extend 24) T1_11055) (_ bv8 32)) ((_ zero_extend 24) T1_11054)) (_ bv8 32)) ((_ zero_extend 24) T1_11053)) (_ bv8 32)) ((_ zero_extend 24) T1_11052))) (bvule T4_11052 (_ bv2048 32)) (bvule ?v_0 (_ bv0 32)) (bvule (_ bv0 32) ?v_0) (not (= T4_7862 (_ bv4294967295 32))) (not (= (_ bv0 32) T4_11052)) (= T4_7862 T4_11052) (not (= T4_11052 (_ bv0 32))))))
(check-sat)
(exit)
